; Main idea of this invariant proof
; If ctr are equal in both games and they use the same randomness, then both games 
;    - produce the same output
;    - abort iff the other aborts
;    - have same ctr afterwards

;;;;;;;;;;;;;;;;;;;;;;;;;;;;;;
;
; Randomness mapping
;
;;;;;;;;;;;;;;;;;;;;;;;;;;;;;;

(define-fun Send1
  ( (base-ctr-0 Int) ; This is the counter in the beginning of the oracle call on the left.
    (base-ctr-1 Int) ; This is the counter in the beginning of the oracle call on the left.
    (id-0  Int)      ; This is the sample-id, see LaTeX export for which id corresponds to which sampling.
    (id-1  Int)      ; This is the sample-id, see LaTeX export for which id corresponds to which sampling.
    (scr-0 Int)      ; This is the counter which gets incremented each time a sampling is done with the same sample id.
    (scr-1 Int))     ; This is the counter which gets incremented each time a sampling is done with the same sample id.
  Bool
  (and
    (= scr-1 base-ctr-1)
    (= scr-0 base-ctr-0)
    (= id-0      3)  ; This sampling happens in the Nonces package and is the 3rd sampling for some reason.
    (= id-1      1)  ; This is the 1st sampling in H1. Check!!
    ))

(define-fun Send2
  ( (base-ctr-0 Int) ; This is the counter in the beginning of the oracle call on the left.
    (base-ctr-1 Int) ; This is the counter in the beginning of the oracle call on the left.
    (id-0  Int)      ; This is the sample-id, see LaTeX export for which id corresponds to which sampling.
    (id-1  Int)      ; This is the sample-id, see LaTeX export for which id corresponds to which sampling.
    (scr-0 Int)      ; This is the counter which gets incremented each time a sampling is done with the same sample id.
    (scr-1 Int))     ; This is the counter which gets incremented each time a sampling is done with the same sample id.
  Bool
  (and
    (= scr-1 base-ctr-1)
    (= scr-0 base-ctr-0)
    (= id-0     3)   ; This sampling happens in the Nonces package and is the 3rd sampling for some reason.
    (= id-1     2)   ; This is a sampling in H1. This is the 2nd sampling (1st one was in Send1). Check!!
  ))

(define-fun Send3
  ( (base-ctr-0 Int) ; This is the counter in the beginning of the oracle call on the left.
    (base-ctr-1 Int) ; This is the counter in the beginning of the oracle call on the left.
    (id-0  Int)      ; This is the sample-id, see LaTeX export for which id corresponds to which sampling.
    (id-1  Int)      ; This is the sample-id, see LaTeX export for which id corresponds to which sampling.
    (scr-0 Int)      ; This is the counter which gets incremented each time a sampling is done with the same sample id.
    (scr-1 Int))     ; This is the counter which gets incremented each time a sampling is done with the same sample id.
  Bool
  (and
    (= scr-1 base-ctr-1)
    (= scr-0 base-ctr-0)
    (= id-0      id-1))) ; no sampling happens

(define-fun Send4
  ( (base-ctr-0 Int) ; This is the counter in the beginning of the oracle call on the left.
    (base-ctr-1 Int) ; This is the counter in the beginning of the oracle call on the left.
    (id-0  Int)      ; This is the sample-id, see LaTeX export for which id corresponds to which sampling.
    (id-1  Int)      ; This is the sample-id, see LaTeX export for which id corresponds to which sampling.
    (scr-0 Int)      ; This is the counter which gets incremented each time a sampling is done with the same sample id.
    (scr-1 Int))     ; This is the counter which gets incremented each time a sampling is done with the same sample id.
  Bool
  (and
    (= scr-1 base-ctr-1)
    (= scr-0 base-ctr-0)
    (= id-0      1)  ; This sampling happens in the KX_red package and is the 1st sampling.
    (= id-1      3)  ; This is the 3rd sampling in H1. Check!!
))

(define-fun Send5
  ( (base-ctr-0 Int) ; This is the counter in the beginning of the oracle call on the left.
    (base-ctr-1 Int) ; This is the counter in the beginning of the oracle call on the left.
    (id-0  Int)      ; This is the sample-id, see LaTeX export for which id corresponds to which sampling.
    (id-1  Int)      ; This is the sample-id, see LaTeX export for which id corresponds to which sampling.
    (scr-0 Int)      ; This is the counter which gets incremented each time a sampling is done with the same sample id.
    (scr-1 Int))     ; This is the counter which gets incremented each time a sampling is done with the same sample id.
  Bool
  (and
    (= scr-1 base-ctr-1)
    (= scr-0 base-ctr-0)
    (= id-0      2)  ; This sampling happens in the KX_red package and is the 2nd sampling.
    (= id-1      4)  ; This is the 4th sampling in H1. Check!!
    ))

(define-fun Reveal
  ( (base-ctr-0 Int) ; This is the counter in the beginning of the oracle call on the left.
    (base-ctr-1 Int) ; This is the counter in the beginning of the oracle call on the left.
    (id-0  Int)      ; This is the sample-id, see LaTeX export for which id corresponds to which sampling.
    (id-1  Int)      ; This is the sample-id, see LaTeX export for which id corresponds to which sampling.
    (scr-0 Int)      ; This is the counter which gets incremented each time a sampling is done with the same sample id.
    (scr-1 Int))     ; This is the counter which gets incremented each time a sampling is done with the same sample id.
  Bool
  (and
    (= scr-1 base-ctr-1)
    (= scr-0 base-ctr-0)
    (= id-0      id-1))) ; no sampling

(define-fun Test
  ( (base-ctr-0 Int) ; This is the counter in the beginning of the oracle call on the left.
    (base-ctr-1 Int) ; This is the counter in the beginning of the oracle call on the left.
    (id-0  Int)      ; This is the sample-id, see LaTeX export for which id corresponds to which sampling.
    (id-1  Int)      ; This is the sample-id, see LaTeX export for which id corresponds to which sampling.
    (scr-0 Int)      ; This is the counter which gets incremented each time a sampling is done with the same sample id.
    (scr-1 Int))     ; This is the counter which gets incremented each time a sampling is done with the same sample id.
  Bool
  (and
    (= scr-1 base-ctr-1)
    (= scr-0 base-ctr-0)
    (= id-0      id-1))) ; no sampling

(define-fun NewKey
  ( (base-ctr-0 Int) ; This is the counter in the beginning of the oracle call on the left.
    (base-ctr-1 Int) ; This is the counter in the beginning of the oracle call on the left.
    (id-0  Int)      ; This is the sample-id, see LaTeX export for which id corresponds to which sampling.
    (id-1  Int)      ; This is the sample-id, see LaTeX export for which id corresponds to which sampling.
    (scr-0 Int)      ; This is the counter which gets incremented each time a sampling is done with the same sample id.
    (scr-1 Int))     ; This is the counter which gets incremented each time a sampling is done with the same sample id.
  Bool
  (and
    (= scr-1 base-ctr-1)
    (= scr-0 base-ctr-0)
    (= id-0      id-1))) ; Check whether they have the same counter, probably not!!

(define-fun NewSession
  ( (base-ctr-0 Int) ; This is the counter in the beginning of the oracle call on the left.
    (base-ctr-1 Int) ; This is the counter in the beginning of the oracle call on the left.
    (id-0  Int)      ; This is the sample-id, see LaTeX export for which id corresponds to which sampling.
    (id-1  Int)      ; This is the sample-id, see LaTeX export for which id corresponds to which sampling.
    (scr-0 Int)      ; This is the counter which gets incremented each time a sampling is done with the same sample id.
    (scr-1 Int))     ; This is the counter which gets incremented each time a sampling is done with the same sample id.
  Bool
  (and
    (= scr-1 base-ctr-1)
    (= scr-0 base-ctr-0)
    (= id-0      id-1))) ; no sampling


;;;;;;;;;;;;;;;;;;;;;;;;;;;;;;;;;;;;;;;;;;;;;;;;;;;;;;;;;;;;;;;;;;;;;;;;;;;;;;;;;;;;;;;;;;;;;;;;;;;;;;;;
;
; Invariant --- note that the invariant needs to be game-global 
;               Having different variants for Oracle & UselessOracle would allow to prove wrong things.
;
;;;;;;;;;;;;;;;;;;;;;;;;;;;;;;;;;;;;;;;;;;;;;;;;;;;;;;;;;;;;;;;;;;;;;;;;;;;;;;;;;;;;;;;;;;;;;;;;;;;;;;;;

(define-fun invariant
  ( (state-kx     <GameState_KX_<$<!n!>$>>)
    (state-kxred  <GameState_KX_Red_<$<!n!>$>>))
  Bool
; getting package-state out of game-state and demaning equality
(=
(<game-KX-<$<!n!>$>-pkgstate-KX>     state-kx)    ;some params are still missing.
(<game-KX_Red-<$<!n!>$>-pkgstate-KX> state-kxred) ;some params are still missing.
)

;  (let
;    ; getting ctr out of state
;    ( (ctr-kxred (<pkg-state-Rand-<$<!n!>$>-ctr> (<game-SmallComposition-<$<!n!>$>-pkgstate-rand> state-0)))
;      (ctr-kx (<pkg-state-Rand-<$<!n!>$>-ctr> (<game-MediumComposition-<$<!n!>$>-pkgstate-rand> state-1))))
;
;    ; ctr are equal
;    (= ctr-kxred ctr-kx))

)
